N = 25;
MinK = 3;
Capacity = 200;

Scale = 10;
DistanceRoundingMode = Floor;
X = array1d(0..N, [40, 25, 22, 22, 20, 20, 18, 15, 15, 10, 10, 8, 8, 5, 5, 2, 0, 0, 44, 42, 42, 40, 40, 38, 38, 35]);
Y = array1d(0..N, [50, 85, 75, 85, 80, 85, 75, 75, 80, 35, 40, 40, 45, 35, 45, 40, 40, 45, 5, 10, 15, 5, 15, 5, 15, 5]);

Demands = array1d(1..N, [20, 30, 10, 40, 20, 20, 20, 10, 20, 30, 40, 20, 10, 10, 20, 20, 20, 20, 40, 10, 10, 40, 30, 10, 20]);

ServiceTimes = array1d(1..N, [10, 10, 10, 10, 10, 10, 10, 10, 10, 10, 10, 10, 10, 10, 10, 10, 10, 10, 10, 10, 10, 10, 10, 10, 10]);

TimeWindows = array2d(1..2, 0..N, [|
    0,  49,  30,  95,  69,  40,  60,  54,  67,  57, 106,  33,  32,  53,  35,  39,  41,  51,  73,  40,  94,  45,  64,  45,  51,  45 |
  240, 191, 168, 152, 193, 189, 159, 133, 144, 154, 161, 152, 148, 191, 194, 163, 141, 189, 130, 148, 179, 161, 149, 164, 194, 183
|]);
